100 5
25 1000
10
7
13
19
26
3
5
9
16
16
12
19
23
20
8
19
2
12
17
9
11
18
29
3
6
17
16
16
9
21
27
23
11
14
8
5
8
16
31
9
5
5
7
18
16
1
27
36
30
13
10
9
14
18
2
6
7
18
28
3
13
19
10
9
20
25
25
36
6
5
15
25
9
8
18
13
14
3
23
6
26
16
11
7
41
35
26
9
15
3
1
2
22
27
20
11
12
10
9
17
35 35 0 1000 0 0
41 49 0 974 10 3
35 17 0 972 10 1
55 45 0 967 10 2
55 20 678 801 10 1
15 30 0 969 10 1
25 30 415 514 10 2
20 50 0 968 10 3
10 43 404 481 10 2
55 60 400 497 10 3
30 60 577 632 10 1
20 65 206 325 10 3
50 35 0 975 10 3
30 25 690 827 10 3
15 10 32 243 10 1
30 5 175 300 10 3
10 20 272 373 10 2
5 30 733 870 10 1
20 40 377 434 10 2
15 60 269 378 10 2
45 65 581 666 10 1
45 20 0 971 10 2
45 10 409 494 10 1
55 5 206 325 10 2
65 35 704 847 10 1
65 20 817 956 10 1
45 30 0 978 10 1
35 40 104 255 10 2
41 37 114 255 10 1
64 42 190 313 10 2
40 60 259 354 10 2
31 52 0 972 10 3
35 69 660 777 10 1
53 52 45 200 10 1
65 55 0 953 10 2
63 65 686 813 10 1
2 60 41 208 10 2
20 20 0 968 10 3
5 5 302 405 10 2
60 12 33 224 10 2
40 25 360 437 10 3
42 7 396 511 10 2
24 12 25 172 10 3
23 3 620 705 10 3
11 14 233 340 10 2
6 38 29 189 10 2
2 48 515 628 10 1
8 56 85 250 10 1
13 52 0 962 10 3
6 68 501 540 10 2
47 47 0 973 10 2
49 58 348 453 10 2
27 43 0 978 10 1
37 31 414 489 10 2
57 29 641 734 10 3
63 23 620 739 10 1
53 12 585 692 10 2
32 12 421 530 10 1
36 26 849 980 10 2
21 24 0 972 10 1
17 34 721 862 10 3
12 24 290 377 10 1
24 58 163 302 10 3
27 69 34 191 10 3
15 77 214 333 10 1
62 77 49 188 10 1
49 73 592 693 10 1
67 5 294 401 10 2
56 39 637 752 10 3
37 47 162 293 10 2
37 56 788 968 10 1
57 68 268 367 10 2
47 16 0 967 10 3
44 17 308 399 10 1
46 13 681 802 10 2
49 11 0 962 10 3
49 42 290 373 10 3
53 43 817 952 10 2
61 52 384 499 10 1
57 48 388 465 10 2
56 37 839 968 10 1
55 54 411 456 10 2
15 47 0 966 10 1
14 37 0 968 10 1
11 31 436 511 10 2
16 22 0 966 10 3
4 18 388 465 10 2
28 18 420 447 10 1
26 52 279 388 10 3
26 35 755 920 10 1
31 67 392 487 10 1
15 19 0 964 10 1
22 22 18 181 10 1
18 24 811 969 10 2
26 27 0 977 10 2
25 24 0 975 10 2
22 27 0 974 10 2
25 21 612 673 10 1
19 21 0 968 10 1
20 26 333 432 10 2
18 18 798 965 10 3
14 48 0 1000 5 4
57 62 0 1000 5 4
63 13 0 1000 5 4
6 39 0 1000 5 4
25 4 0 1000 5 4
0 1 0 0 0
0 0 0 0 0
0 1 0 0 0
0 0 0 0 0
0 0 0 0 0
1 0 0 0 0
1 0 0 0 0
0 0 0 1 0
0 1 0 0 0
0 0 0 0 0
1 0 0 0 0
0 0 1 0 0
0 0 0 0 1
0 0 0 0 0
0 0 0 0 1
0 0 0 1 0
0 0 0 0 0
1 0 0 0 0
1 0 0 0 0
0 0 0 0 0
0 0 1 0 0
0 0 0 0 0
0 0 1 0 0
0 0 0 0 0
0 0 0 0 0
0 0 0 0 0
1 0 0 0 0
0 0 0 0 0
0 1 0 0 0
0 1 0 0 0
1 0 0 0 0
0 0 0 0 0
0 0 0 0 0
0 1 0 0 0
0 0 0 0 0
1 0 0 0 0
0 0 0 0 1
0 0 0 0 1
0 0 1 0 0
0 0 0 0 1
0 0 0 0 1
0 0 0 0 1
0 0 0 0 1
0 0 0 0 1
0 0 0 1 0
0 0 0 0 0
0 0 0 0 0
1 0 0 0 0
1 0 0 0 0
0 1 0 0 0
0 1 0 0 0
0 0 0 0 0
1 0 0 0 0
0 0 1 0 0
0 0 0 0 0
0 0 1 0 0
0 0 0 0 0
0 0 0 0 1
0 0 0 0 0
0 0 0 1 0
0 0 0 0 0
1 0 0 0 0
1 0 0 0 0
0 0 0 0 0
0 0 0 0 0
0 0 0 0 0
0 0 1 0 0
0 1 0 0 0
1 0 0 0 0
0 0 0 0 0
0 1 0 0 0
0 0 1 0 0
0 0 0 0 0
0 0 1 0 0
0 0 1 0 0
0 1 0 0 0
0 1 0 0 0
0 0 0 0 0
0 1 0 0 0
0 0 0 0 0
0 1 0 0 0
0 0 0 0 0
0 0 0 0 0
0 0 0 1 0
0 0 0 1 0
0 0 0 1 0
0 0 0 0 0
1 0 0 0 0
0 0 0 0 0
0 0 0 0 0
0 0 0 0 0
0 0 0 0 0
0 0 0 1 0
0 0 0 0 1
0 0 0 0 1
0 0 0 1 0
0 0 0 0 0
0 0 0 0 0
0 0 0 1 0
0 0 0 0 1
